(declare-fun temp560_1 () (_ BitVec 64))
(declare-fun var397898 () (_ BitVec 64))
(declare-fun var397900 () (_ BitVec 64))
(declare-fun temp560_3 () (_ BitVec 64))
(declare-fun temp560_2 () (_ BitVec 64))
(declare-fun temp560_4 () (_ BitVec 64))
(declare-fun var1063364 () (_ BitVec 64))
(declare-fun k!0 () Bool)
(declare-fun ARGNAME_shape_NAMEEND_LEN () (_ BitVec 64))
(declare-fun temp560_5 () (_ BitVec 64))
(declare-fun temp560_6 () (_ BitVec 64))
(declare-fun ARGNAME_shape_NAMEEND_VAL () (Array (_ BitVec 64) (_ BitVec 64)))
(declare-fun temp560_7 () (_ BitVec 64))
(declare-fun temp560_8 () (_ BitVec 64))
(declare-fun temp560_9 () (_ BitVec 64))
(declare-fun temp560_10 () (_ BitVec 64))
(declare-fun temp560_11 () (_ BitVec 64))
(declare-fun temp560_12 () (_ BitVec 64))
(declare-fun temp560_13 () (_ BitVec 64))
(declare-fun temp560_14 () (_ BitVec 64))
(declare-fun temp560_15 () (_ BitVec 64))
(declare-fun temp560_16 () (_ BitVec 64))
(declare-fun temp560_17 () (_ BitVec 64))
(declare-fun temp560_18 () (_ BitVec 64))
(declare-fun temp560_19 () (_ BitVec 64))
(declare-fun temp560_20 () (_ BitVec 64))
(declare-fun temp560_21 () (_ BitVec 64))
(declare-fun temp560_22 () (_ BitVec 64))
(declare-fun var1063371 () (_ BitVec 64))
(declare-fun temp560_24 () (_ BitVec 64))
(declare-fun temp560_25 () (_ BitVec 64))
(declare-fun temp560_23 () (_ BitVec 64))
(declare-fun temp560_26 () (_ BitVec 64))
(declare-fun var1063376 () (_ BitVec 64))
(declare-fun temp560_27 () (_ BitVec 64))
(declare-fun var1063397 () (_ BitVec 64))
(declare-fun temp560_29 () (_ BitVec 64))
(declare-fun temp560_30 () (_ BitVec 64))
(declare-fun temp560_28 () (_ BitVec 64))
(declare-fun temp560_31 () (_ BitVec 64))
(declare-fun var1063400 () (_ BitVec 64))
(declare-fun var1063402 () (_ BitVec 64))
(declare-fun temp560_34 () (_ BitVec 64))
(declare-fun temp560_35 () (_ BitVec 64))
(declare-fun temp560_33 () (_ BitVec 64))
(declare-fun temp560_36 () (_ BitVec 64))
(declare-fun var1063372 () (_ BitVec 64))
(declare-fun var1063441 () (_ BitVec 64))
(declare-fun temp560_38 () (_ BitVec 64))
(declare-fun var1706668 () (_ BitVec 64))
(declare-fun var1706676 () (_ BitVec 64))
(assert (= temp560_1 #x0000000000000005))
(assert (= var397898 temp560_1))
(assert (= var397900 var397898))
(assert (= temp560_3 #x0000000000000000))
(assert (= temp560_2 temp560_3))
(assert (= var1063364
   (ite (= temp560_2 ARGNAME_shape_NAMEEND_LEN)
        #x0000000000000001
        #x0000000000000000)))
(assert (= temp560_4 #x0000000000000000))
(assert (= var1063364 temp560_4))
(assert (= temp560_5 #x0000000000000000))
(assert (= temp560_6 temp560_5))
(assert (= temp560_7 (select ARGNAME_shape_NAMEEND_VAL temp560_6)))
(assert (= temp560_8 #x0000000000000001))
(assert (= temp560_9 temp560_8))
(assert (= temp560_10 (select ARGNAME_shape_NAMEEND_VAL temp560_9)))
(assert (= temp560_11 #x0000000000000002))
(assert (= temp560_12 temp560_11))
(assert (= temp560_13 (select ARGNAME_shape_NAMEEND_VAL temp560_12)))
(assert (= temp560_14 #x0000000000000003))
(assert (= temp560_15 temp560_14))
(assert (= temp560_16 (select ARGNAME_shape_NAMEEND_VAL temp560_15)))
(assert (= temp560_17 #x0000000000000004))
(assert (= temp560_18 temp560_17))
(assert (= temp560_19 (select ARGNAME_shape_NAMEEND_VAL temp560_18)))
(assert (= temp560_20 #x0000000000000005))
(assert (= temp560_21 temp560_20))
(assert (= temp560_22 (select ARGNAME_shape_NAMEEND_VAL temp560_21)))
(assert (= temp560_24 var1063371))
(assert (= temp560_25 (select ARGNAME_shape_NAMEEND_VAL temp560_24)))
(assert (= temp560_23 temp560_25))
(assert (= temp560_26 #xffffffffffffffff))
(assert (= var1063376
   (ite (= temp560_23 temp560_26) #x0000000000000001 #x0000000000000000)))
(assert (= temp560_27 #x0000000000000000))
(assert (= var1063376 temp560_27))
(assert (= temp560_29 var1063397))
(assert (= temp560_30 (select ARGNAME_shape_NAMEEND_VAL temp560_29)))
(assert (= temp560_28 temp560_30))
(assert (= temp560_31 #xffffffffffffffff))
(assert (= var1063400
   (ite (bvsgt temp560_28 temp560_31) #x0000000000000001 #x0000000000000000)))
(assert (= temp560_34 var1063402))
(assert (= temp560_35 (select ARGNAME_shape_NAMEEND_VAL temp560_34)))
(assert (= temp560_33 temp560_35))
(assert (= temp560_36 #x0000000000000001))
(assert (= var1063372 (bvadd temp560_2 temp560_36)))
(assert (= var1063441
   (ite (= var1063372 ARGNAME_shape_NAMEEND_LEN)
        #x0000000000000001
        #x0000000000000000)))
(assert (= temp560_38 #x0000000000000001))
(assert (= var1706668 temp560_38))
(assert (= var1706676 var1706668))
(model-add temp560_1 () (_ BitVec 64) #x0000000000000005)
(model-add var397898 () (_ BitVec 64) #x0000000000000005)
(model-add var397900 () (_ BitVec 64) #x0000000000000005)
(model-add temp560_3 () (_ BitVec 64) #x0000000000000000)
(model-add temp560_2 () (_ BitVec 64) #x0000000000000000)
(model-add temp560_4 () (_ BitVec 64) #x0000000000000000)
(model-add var1063364 () (_ BitVec 64) #x0000000000000000)
(model-del k!0)
(model-add ARGNAME_shape_NAMEEND_LEN
           ()
           (_ BitVec 64)
           (ite k!0 #x0000000000000000 (bvnot #x0000000000000000)))






